NAME: tsp25_19
COMMENT: 25-tsp problem (Padberg/Rinaldi)
TYPE: TSP
DIMENSION: 25
EDGE_WEIGHT_TYPE : EUC_2D
NODE_COORD_SECTION
1 3 7
2 12 34
3 14 24
4 13 32
5 25 12
6 3 21
7 28 18
8 25 15
9 7 35
10 26 24
11 28 7
12 17 24
13 25 11
14 29 7
15 10 7
16 5 35
17 5 34
18 36 27
19 14 9
20 18 24
21 24 22
22 24 12
23 10 27
24 12 0
25 18 2
